
Value of objective function: 58.00000000

Actual values of the variables:
C1                              0
C2                              1
C3                              1
C4                              0
C5                              0
C6                              0
C7                              1
C8                              0
C9                              0
C10                             0
C11                             0
C12                             0
C13                             1
C14                             0
C15                             0
C16                             0
C17                             0
C18                             0
C19                             0
C20                             1
C21                             1
C22                             0
C23                             0
C24                             0
C25                             0
C26                             1
C27                             0
C28                             0
C29                             0
C30                             0
C31                             0
C32                             0
C33                             0
C34                             0
C35                             0
C36                             0
C37                             0
C38                             0
C39                             0
C40                             0
C41                             0
C42                             0
C43                             0
C44                             1
C45                             0
C46                             0
C47                             0
C48                             0

Actual values of the constraints:
R1                              0
R2                              0
R3                              0
R4                              0
R5                              0
R6                              0
R7                              0
R8                              0
R9                              0
R10                             0
R11                             0
R12                             0
R13                             0
R14                             0
R15                             0
R16                             0
R17                             0
R18                             0
R19                             0
R20                             0
R21                             0
R22                             0
R23                             0
R24                             0
R25                             0
R26                             0
R27                             0
R28                             0
R29                             0
R30                             0
R31                             0
R32                             0
R33                             0
R34                             0
R35                             0
R36                             0
R37                             0
R38                             0
R39                             0
R40                             0
R41                             0
R42                             0
R43                             0
R44                             0
R45                             0
R46                             0
R47                             0
R48                             0
R49                             0
R50                             0
R51                             0
R52                             0
R53                             2
R54                             1
R55                             1
R56                             2
R57                             1
R58                             1
R59                             1
R60                             0
R61                             0
R62                             0
R63                             1
R64                             1
R65                             1
R66                             0
R67                             0
R68                             0
R69                             1
R70                             1
R71                             1
R72                             0
R73                             0
R74                             0
R75                             1
R76                             1
R77                             1
R78                             0
R79                             0
R80                             0
R81                             1
R82                             0
R83                             1
R84                             0
R85                             0
R86                             0
R87                             1
R88                             0
R89                             0
R90                             0
R91                             0
R92                             0
R93                             1
R94                             0
R95                             0
R96                             0
R97                             0
R98                             0
R99                             1
R100                            0
R101                            1
R102                            0
R103                            0
R104                            0
